\ Model chessboard_domino
\ LP format - for model browsing. Use MPS format to capture full model detail.
\ Signature: 0xab67f14877656bda
Minimize
  x[0,1] + x[0,8] + x[1,2] + x[1,9] + x[2,3] + x[2,10] + x[3,4] + x[3,11]
   + x[4,5] + x[4,12] + x[5,6] + x[5,13] + x[6,7] + x[6,14] + x[7,15]
   + x[8,9] + x[8,16] + x[9,10] + x[9,17] + x[10,11] + x[10,18] + x[11,12]
   + x[11,19] + x[12,13] + x[12,20] + x[13,14] + x[13,21] + x[14,15]
   + x[14,22] + x[15,23] + x[16,17] + x[16,24] + x[17,18] + x[17,25]
   + x[18,19] + x[18,26] + x[19,20] + x[19,27] + x[20,21] + x[20,28]
   + x[21,22] + x[21,29] + x[22,23] + x[22,30] + x[23,31] + x[24,25]
   + x[24,32] + x[25,26] + x[25,33] + x[26,27] + x[26,34] + x[27,28]
   + x[27,35] + x[28,29] + x[28,36] + x[29,30] + x[29,37] + x[30,31]
   + x[30,38] + x[31,39] + x[32,33] + x[33,34] + x[34,35] + x[34,42]
   + x[35,36] + x[35,43] + x[36,37] + x[36,44] + x[37,38] + x[37,45]
   + x[38,39] + x[38,46] + x[39,47] + x[42,43] + x[42,50] + x[43,44]
   + x[43,51] + x[44,45] + x[44,52] + x[45,46] + x[45,53] + x[46,47]
   + x[46,54] + x[47,55] + x[48,56] + x[50,51] + x[50,58] + x[51,52]
   + x[51,59] + x[52,53] + x[52,60] + x[53,54] + x[53,61] + x[54,55]
   + x[54,62] + x[55,63] + x[58,59] + x[59,60] + x[60,61] + x[61,62]
   + x[62,63]
Subject To
 R0: x[0,1] + x[0,8] = 1
 R1: x[0,1] + x[1,2] + x[1,9] = 1
 R2: x[1,2] + x[2,3] + x[2,10] = 1
 R3: x[2,3] + x[3,4] + x[3,11] = 1
 R4: x[3,4] + x[4,5] + x[4,12] = 1
 R5: x[4,5] + x[5,6] + x[5,13] = 1
 R6: x[5,6] + x[6,7] + x[6,14] = 1
 R7: x[6,7] + x[7,15] = 1
 R8: x[0,8] + x[8,9] + x[8,16] = 1
 R9: x[1,9] + x[8,9] + x[9,10] + x[9,17] = 1
 R10: x[2,10] + x[9,10] + x[10,11] + x[10,18] = 1
 R11: x[3,11] + x[10,11] + x[11,12] + x[11,19] = 1
 R12: x[4,12] + x[11,12] + x[12,13] + x[12,20] = 1
 R13: x[5,13] + x[12,13] + x[13,14] + x[13,21] = 1
 R14: x[6,14] + x[13,14] + x[14,15] + x[14,22] = 1
 R15: x[7,15] + x[14,15] + x[15,23] = 1
 R16: x[8,16] + x[16,17] + x[16,24] = 1
 R17: x[9,17] + x[16,17] + x[17,18] + x[17,25] = 1
 R18: x[10,18] + x[17,18] + x[18,19] + x[18,26] = 1
 R19: x[11,19] + x[18,19] + x[19,20] + x[19,27] = 1
 R20: x[12,20] + x[19,20] + x[20,21] + x[20,28] = 1
 R21: x[13,21] + x[20,21] + x[21,22] + x[21,29] = 1
 R22: x[14,22] + x[21,22] + x[22,23] + x[22,30] = 1
 R23: x[15,23] + x[22,23] + x[23,31] = 1
 R24: x[16,24] + x[24,25] + x[24,32] = 1
 R25: x[17,25] + x[24,25] + x[25,26] + x[25,33] = 1
 R26: x[18,26] + x[25,26] + x[26,27] + x[26,34] = 1
 R27: x[19,27] + x[26,27] + x[27,28] + x[27,35] = 1
 R28: x[20,28] + x[27,28] + x[28,29] + x[28,36] = 1
 R29: x[21,29] + x[28,29] + x[29,30] + x[29,37] = 1
 R30: x[22,30] + x[29,30] + x[30,31] + x[30,38] = 1
 R31: x[23,31] + x[30,31] + x[31,39] = 1
 R32: x[24,32] + x[32,33] = 1
 R33: x[25,33] + x[32,33] + x[33,34] = 1
 R34: x[26,34] + x[33,34] + x[34,35] + x[34,42] = 1
 R35: x[27,35] + x[34,35] + x[35,36] + x[35,43] = 1
 R36: x[28,36] + x[35,36] + x[36,37] + x[36,44] = 1
 R37: x[29,37] + x[36,37] + x[37,38] + x[37,45] = 1
 R38: x[30,38] + x[37,38] + x[38,39] + x[38,46] = 1
 R39: x[31,39] + x[38,39] + x[39,47] = 1
 R40: x[34,42] + x[42,43] + x[42,50] = 1
 R41: x[35,43] + x[42,43] + x[43,44] + x[43,51] = 1
 R42: x[36,44] + x[43,44] + x[44,45] + x[44,52] = 1
 R43: x[37,45] + x[44,45] + x[45,46] + x[45,53] = 1
 R44: x[38,46] + x[45,46] + x[46,47] + x[46,54] = 1
 R45: x[39,47] + x[46,47] + x[47,55] = 1
 R46: x[48,56] = 1
 R47: x[42,50] + x[50,51] + x[50,58] = 1
 R48: x[43,51] + x[50,51] + x[51,52] + x[51,59] = 1
 R49: x[44,52] + x[51,52] + x[52,53] + x[52,60] = 1
 R50: x[45,53] + x[52,53] + x[53,54] + x[53,61] = 1
 R51: x[46,54] + x[53,54] + x[54,55] + x[54,62] = 1
 R52: x[47,55] + x[54,55] + x[55,63] = 1
 R53: x[48,56] = 1
 R54: x[50,58] + x[58,59] = 1
 R55: x[51,59] + x[58,59] + x[59,60] = 1
 R56: x[52,60] + x[59,60] + x[60,61] = 1
 R57: x[53,61] + x[60,61] + x[61,62] = 1
 R58: x[54,62] + x[61,62] + x[62,63] = 1
 R59: x[55,63] + x[62,63] = 1
Bounds
Binaries
 x[0,1] x[0,8] x[1,2] x[1,9] x[2,3] x[2,10] x[3,4] x[3,11] x[4,5] x[4,12]
 x[5,6] x[5,13] x[6,7] x[6,14] x[7,15] x[8,9] x[8,16] x[9,10] x[9,17]
 x[10,11] x[10,18] x[11,12] x[11,19] x[12,13] x[12,20] x[13,14] x[13,21]
 x[14,15] x[14,22] x[15,23] x[16,17] x[16,24] x[17,18] x[17,25] x[18,19]
 x[18,26] x[19,20] x[19,27] x[20,21] x[20,28] x[21,22] x[21,29] x[22,23]
 x[22,30] x[23,31] x[24,25] x[24,32] x[25,26] x[25,33] x[26,27] x[26,34]
 x[27,28] x[27,35] x[28,29] x[28,36] x[29,30] x[29,37] x[30,31] x[30,38]
 x[31,39] x[32,33] x[33,34] x[34,35] x[34,42] x[35,36] x[35,43] x[36,37]
 x[36,44] x[37,38] x[37,45] x[38,39] x[38,46] x[39,47] x[42,43] x[42,50]
 x[43,44] x[43,51] x[44,45] x[44,52] x[45,46] x[45,53] x[46,47] x[46,54]
 x[47,55] x[48,56] x[50,51] x[50,58] x[51,52] x[51,59] x[52,53] x[52,60]
 x[53,54] x[53,61] x[54,55] x[54,62] x[55,63] x[58,59] x[59,60] x[60,61]
 x[61,62] x[62,63]
End
